
Welcome to IBM(R) ILOG(R) CPLEX(R) Interactive Optimizer 22.1.1.0
  with Simplex, Mixed Integer & Barrier Optimizers
5725-A06 5725-A29 5724-Y48 5724-Y49 5724-Y54 5724-Y55 5655-Y21
Copyright IBM Corp. 1988, 2022.  All Rights Reserved.

Type 'help' for a list of available commands.
Type 'help' followed by a command name for more
information on commands.

CPLEX> Problem '/tmp/87e811e18f3045b69c92750632078e3f-pulp.lp' read.
Read time = 0.00 sec. (0.18 ticks)
CPLEX> New value for time limit in seconds: 900
CPLEX> Version identifier: 22.1.1.0 | 2022-11-28 | 9160aff4d
CPXPARAM_TimeLimit                               900
Tried aggregator 3 times.
MIP Presolve eliminated 1126 rows and 199 columns.
MIP Presolve modified 1773 coefficients.
Aggregator did 18 substitutions.
Reduced MIP has 603 rows, 198 columns, and 1926 nonzeros.
Reduced MIP has 181 binaries, 0 generals, 0 SOSs, and 0 indicators.
Presolve time = 0.00 sec. (5.20 ticks)
Found incumbent of value 43.011000 after 0.01 sec. (5.64 ticks)
Probing fixed 9 vars, tightened 0 bounds.
Probing time = 0.00 sec. (0.52 ticks)
Tried aggregator 1 time.
Detecting symmetries...
MIP Presolve eliminated 193 rows and 18 columns.
MIP Presolve modified 128 coefficients.
Reduced MIP has 410 rows, 180 columns, and 1443 nonzeros.
Reduced MIP has 171 binaries, 0 generals, 0 SOSs, and 0 indicators.
Presolve time = 0.00 sec. (1.56 ticks)
Probing time = 0.00 sec. (0.22 ticks)
Clique table members: 398.
MIP emphasis: balance optimality and feasibility.
MIP search method: dynamic search.
Parallel mode: deterministic, using up to 32 threads.
Root relaxation solution time = 0.00 sec. (1.17 ticks)

        Nodes                                         Cuts/
   Node  Left     Objective  IInf  Best Integer    Best Bound    ItCnt     Gap

*     0+    0                           43.0110        0.0090            99.98%
*     0+    0                            1.3090        0.0090            99.31%
      0     0        cutoff              1.3090        1.3090       49    0.00%
      0     0        cutoff              1.3090        1.3090       49    0.00%
Elapsed time = 0.01 sec. (10.00 ticks, tree = 0.01 MB, solutions = 2)

Root node processing (before b&c):
  Real time             =    0.01 sec. (10.02 ticks)
Parallel b&c, 32 threads:
  Real time             =    0.00 sec. (0.00 ticks)
  Sync time (average)   =    0.00 sec.
  Wait time (average)   =    0.00 sec.
                          ------------
Total (root+branch&cut) =    0.01 sec. (10.02 ticks)

Solution pool: 2 solutions saved.

MIP - Integer optimal solution:  Objective =  1.3090000000e+00
Solution time =    0.01 sec.  Iterations = 49  Nodes = 0
Deterministic time = 10.02 ticks  (702.68 ticks/sec)

CPLEX> MILP problem relaxed to LP with fixed integer variables using
incumbent solution.
CPLEX> Version identifier: 22.1.1.0 | 2022-11-28 | 9160aff4d
CPXPARAM_TimeLimit                               900
Tried aggregator 1 time.
LP Presolve eliminated 1747 rows and 415 columns.
All rows and columns eliminated.
Presolve time = 0.00 sec. (0.69 ticks)

Dual simplex - Optimal:  Objective =  1.3090000000e+00
Solution time =    0.00 sec.  Iterations = 0 (0)
Deterministic time = 1.28 ticks  (1282.29 ticks/sec)

CPLEX> Solution written to file '/tmp/87e811e18f3045b69c92750632078e3f-pulp.sol'.
CPLEX> Root classes: ['14']
Status: Optimal
Solved x values:
['0.0', '1.2', '2.2', '3.2', '6.2', '7.2', '9.2', '10.2', '11.2', '14.9', '47.2', '48.2', '49.2']
